(set-logic QF_NRA)
(set-info :source |Benchmarks generated from hycomp (https://es-static.fbk.eu/tools/hycomp/). BMC instances of non-linear hybrid automata taken from: Alessandro Cimatti, Sergio Mover, Stefano Tonetta, A quantifier-free SMT encoding of non-linear hybrid automata, FMCAD 2012 and Alessandro Cimatti, Sergio Mover, Stefano Tonetta, Quantier-free encoding of invariants for Hybrid Systems, Formal Methods in System Design. This instance solves a BMC problem of depth 2 and uses the quantifier free encoding encoding. Contacts: Sergio Mover (mover@fbk.eu), Stefano Tonetta (tonettas@fbk.eu), Alessandro Cimatti (cimatti@fbk.eu).|)
(set-info :smt-lib-version 2.0)
(set-info :category "industrial")
(set-info :status unsat)
;; MathSAT API call trace
;; generated on Mon Mar 19 10:50:55 2012
(declare-fun b.speed_y__AT2 () Real)
(declare-fun b.y__AT0 () Real)
(declare-fun b.counter.0__AT0 () Bool)
(declare-fun b.EVENT.0__AT0 () Bool)
(declare-fun b.counter.3__AT0 () Bool)
(declare-fun b.counter.1__AT0 () Bool)
(declare-fun b.event_is_timed__AT1 () Bool)
(declare-fun b.bool_atom__AT1 () Bool)
(declare-fun b.g__AT0 () Real)
(declare-fun b.speed_y__AT0 () Real)
(declare-fun b.time__AT2 () Real)
(declare-fun b.x__AT1 () Real)
(declare-fun b.delta__AT2 () Real)
(declare-fun b.y__AT1 () Real)
(declare-fun b.counter.2__AT0 () Bool)
(declare-fun b.counter.0__AT1 () Bool)
(declare-fun b.counter.1__AT1 () Bool)
(declare-fun b.counter.2__AT1 () Bool)
(declare-fun b.event_is_timed__AT2 () Bool)
(declare-fun b.event_is_timed__AT0 () Bool)
(declare-fun b.counter.3__AT1 () Bool)
(declare-fun b.bool_atom__AT0 () Bool)
(declare-fun b.x__AT0 () Real)
(declare-fun b.counter.0__AT2 () Bool)
(declare-fun b.y__AT2 () Real)
(declare-fun b.delta__AT1 () Real)
(declare-fun b.speed_y__AT1 () Real)
(declare-fun b.counter.1__AT2 () Bool)
(declare-fun b.bool_atom__AT2 () Bool)
(declare-fun b.time__AT1 () Real)
(declare-fun b.EVENT.0__AT1 () Bool)
(declare-fun b.counter.2__AT2 () Bool)
(declare-fun b.time__AT0 () Real)
(declare-fun b.x__AT2 () Real)
(declare-fun b.EVENT.1__AT1 () Bool)
(declare-fun b.counter.3__AT2 () Bool)
(declare-fun b.EVENT.0__AT2 () Bool)
(declare-fun b.delta__AT0 () Real)
(declare-fun b.EVENT.1__AT2 () Bool)
(declare-fun b.EVENT.1__AT0 () Bool)
(assert (let ((.def_76 (* (- 1.0) b.g__AT0)))
(let ((.def_79 (* (/ 1 2) .def_76)))
(let ((.def_92 (* 2.0 .def_79)))
(let ((.def_98 (* (- 1.0) .def_92)))
(let ((.def_477 (* .def_98 b.delta__AT2)))
(let ((.def_478 (<= b.speed_y__AT2 .def_477)))
(let ((.def_476 (<= b.speed_y__AT2 0.0 )))
(let ((.def_479 (and .def_476 .def_478)))
(let ((.def_472 (* .def_92 b.delta__AT2)))
(let ((.def_473 (+ b.speed_y__AT2 .def_472)))
(let ((.def_474 (<= 0.0 .def_473)))
(let ((.def_471 (<= 0.0 b.speed_y__AT2)))
(let ((.def_475 (and .def_471 .def_474)))
(let ((.def_480 (or .def_475 .def_479)))
(let ((.def_462 (* b.speed_y__AT2 b.delta__AT2)))
(let ((.def_460 (* b.delta__AT2 b.delta__AT2)))
(let ((.def_461 (* .def_79 .def_460)))
(let ((.def_463 (+ .def_461 .def_462)))
(let ((.def_440 (* (- 1.0) b.x__AT2)))
(let ((.def_441 (* b.x__AT2 .def_440)))
(let ((.def_464 (* (- 1.0) .def_441)))
(let ((.def_467 (+ .def_464 .def_463)))
(let ((.def_468 (+ b.y__AT2 .def_467)))
(let ((.def_469 (<= 0.0 .def_468)))
(let ((.def_442 (<= .def_441 b.y__AT2)))
(let ((.def_470 (and .def_442 .def_469)))
(let ((.def_481 (and .def_470 .def_480)))
(let ((.def_68 (<= b.g__AT0 10.0 )))
(let ((.def_67 (<= 8.0 b.g__AT0)))
(let ((.def_69 (and .def_67 .def_68)))
(let ((.def_482 (and .def_69 .def_481)))
(let ((.def_174 (not b.counter.0__AT1)))
(let ((.def_452 (or b.counter.1__AT1 .def_174)))
(let ((.def_453 (or b.counter.2__AT1 .def_452)))
(let ((.def_164 (not b.counter.1__AT1)))
(let ((.def_447 (and .def_164 .def_174)))
(let ((.def_169 (not b.counter.2__AT1)))
(let ((.def_451 (or .def_169 .def_447)))
(let ((.def_454 (and .def_451 .def_453)))
(let ((.def_455 (or b.counter.3__AT1 .def_454)))
(let ((.def_448 (or b.counter.2__AT1 .def_447)))
(let ((.def_446 (or .def_164 .def_169)))
(let ((.def_449 (and .def_446 .def_448)))
(let ((.def_183 (not b.counter.3__AT1)))
(let ((.def_450 (or .def_183 .def_449)))
(let ((.def_456 (and .def_450 .def_455)))
(let ((.def_443 (and .def_69 .def_442)))
(let ((.def_437 (not b.EVENT.0__AT2)))
(let ((.def_435 (not b.EVENT.1__AT2)))
(let ((.def_438 (or .def_435 .def_437)))
(let ((.def_9 (not b.counter.0__AT2)))
(let ((.def_6 (not b.counter.1__AT2)))
(let ((.def_428 (or .def_6 .def_9)))
(let ((.def_432 (or b.counter.3__AT2 .def_428)))
(let ((.def_429 (or b.counter.2__AT2 .def_428)))
(let ((.def_4 (not b.counter.2__AT2)))
(let ((.def_427 (or .def_4 .def_9)))
(let ((.def_430 (and .def_427 .def_429)))
(let ((.def_14 (not b.counter.3__AT2)))
(let ((.def_431 (or .def_14 .def_430)))
(let ((.def_433 (and .def_431 .def_432)))
(let ((.def_439 (and .def_433 .def_438)))
(let ((.def_444 (and .def_439 .def_443)))
(let ((.def_422 (<= 0.0 b.delta__AT1)))
(let ((.def_253 (not b.EVENT.0__AT1)))
(let ((.def_251 (not b.EVENT.1__AT1)))
(let ((.def_299 (and .def_251 .def_253)))
(let ((.def_301 (not .def_299)))
(let ((.def_423 (or .def_301 .def_422)))
(let ((.def_424 (or b.EVENT.1__AT1 .def_423)))
(let ((.def_336 (= b.bool_atom__AT1 b.bool_atom__AT2)))
(let ((.def_332 (= b.counter.0__AT2 b.counter.0__AT1)))
(let ((.def_330 (= b.counter.1__AT2 b.counter.1__AT1)))
(let ((.def_328 (= b.counter.2__AT2 b.counter.2__AT1)))
(let ((.def_327 (= b.counter.3__AT2 b.counter.3__AT1)))
(let ((.def_329 (and .def_327 .def_328)))
(let ((.def_331 (and .def_329 .def_330)))
(let ((.def_333 (and .def_331 .def_332)))
(let ((.def_418 (and .def_333 .def_336)))
(let ((.def_419 (or .def_301 .def_418)))
(let ((.def_420 (or b.EVENT.1__AT1 .def_419)))
(let ((.def_407 (* .def_76 b.delta__AT1)))
(let ((.def_408 (* (- 1.0) b.speed_y__AT2)))
(let ((.def_411 (+ .def_408 .def_407)))
(let ((.def_412 (+ b.speed_y__AT1 .def_411)))
(let ((.def_413 (= .def_412 0.0 )))
(let ((.def_398 (* (- 1.0) b.y__AT2)))
(let ((.def_277 (* b.speed_y__AT1 b.delta__AT1)))
(let ((.def_402 (+ .def_277 .def_398)))
(let ((.def_275 (* b.delta__AT1 b.delta__AT1)))
(let ((.def_276 (* .def_79 .def_275)))
(let ((.def_403 (+ .def_276 .def_402)))
(let ((.def_404 (+ b.y__AT1 .def_403)))
(let ((.def_405 (= .def_404 0.0 )))
(let ((.def_319 (= b.x__AT1 b.x__AT2)))
(let ((.def_406 (and .def_319 .def_405)))
(let ((.def_414 (and .def_406 .def_413)))
(let ((.def_415 (or .def_301 .def_414)))
(let ((.def_322 (= b.y__AT1 b.y__AT2)))
(let ((.def_393 (and .def_319 .def_322)))
(let ((.def_325 (= b.speed_y__AT1 b.speed_y__AT2)))
(let ((.def_394 (and .def_325 .def_393)))
(let ((.def_390 (= b.delta__AT1 0.0 )))
(let ((.def_391 (and .def_299 .def_390)))
(let ((.def_392 (not .def_391)))
(let ((.def_395 (or .def_392 .def_394)))
(let ((.def_396 (or b.EVENT.1__AT1 .def_395)))
(let ((.def_383 (and .def_325 .def_333)))
(let ((.def_384 (or b.bool_atom__AT1 .def_383)))
(let ((.def_359 (or .def_9 b.counter.0__AT1)))
(let ((.def_358 (or b.counter.0__AT2 .def_174)))
(let ((.def_360 (and .def_358 .def_359)))
(let ((.def_361 (and .def_6 .def_360)))
(let ((.def_362 (or b.counter.1__AT1 .def_361)))
(let ((.def_357 (or b.counter.1__AT2 .def_164)))
(let ((.def_363 (and .def_357 .def_362)))
(let ((.def_374 (and .def_4 .def_363)))
(let ((.def_375 (or b.counter.2__AT1 .def_374)))
(let ((.def_369 (and .def_6 .def_174)))
(let ((.def_370 (or b.counter.1__AT1 .def_369)))
(let ((.def_371 (and .def_357 .def_370)))
(let ((.def_372 (and b.counter.2__AT2 .def_371)))
(let ((.def_373 (or .def_169 .def_372)))
(let ((.def_376 (and .def_373 .def_375)))
(let ((.def_377 (and b.counter.3__AT2 .def_376)))
(let ((.def_378 (or b.counter.3__AT1 .def_377)))
(let ((.def_364 (and b.counter.2__AT2 .def_363)))
(let ((.def_365 (or b.counter.2__AT1 .def_364)))
(let ((.def_353 (or b.counter.1__AT2 b.counter.1__AT1)))
(let ((.def_351 (and .def_6 b.counter.0__AT2)))
(let ((.def_352 (or .def_164 .def_351)))
(let ((.def_354 (and .def_352 .def_353)))
(let ((.def_355 (and .def_4 .def_354)))
(let ((.def_356 (or .def_169 .def_355)))
(let ((.def_366 (and .def_356 .def_365)))
(let ((.def_367 (and .def_14 .def_366)))
(let ((.def_368 (or .def_183 .def_367)))
(let ((.def_379 (and .def_368 .def_378)))
(let ((.def_348 (* b.speed_y__AT2 b.speed_y__AT2)))
(let ((.def_160 (* b.speed_y__AT1 b.speed_y__AT1)))
(let ((.def_349 (= .def_160 .def_348)))
(let ((.def_346 (+ b.speed_y__AT1 b.speed_y__AT2)))
(let ((.def_347 (= .def_346 0.0 )))
(let ((.def_350 (and .def_347 .def_349)))
(let ((.def_380 (and .def_350 .def_379)))
(let ((.def_345 (not b.bool_atom__AT1)))
(let ((.def_381 (or .def_345 .def_380)))
(let ((.def_286 (<= 0.0 b.speed_y__AT1)))
(let ((.def_342 (not .def_286)))
(let ((.def_256 (* (- 1.0) b.x__AT1)))
(let ((.def_257 (* b.x__AT1 .def_256)))
(let ((.def_341 (= b.y__AT1 .def_257)))
(let ((.def_343 (and .def_341 .def_342)))
(let ((.def_344 (= b.bool_atom__AT1 .def_343)))
(let ((.def_382 (and .def_344 .def_381)))
(let ((.def_385 (and .def_382 .def_384)))
(let ((.def_386 (and .def_319 .def_385)))
(let ((.def_387 (and .def_322 .def_386)))
(let ((.def_388 (or .def_299 .def_387)))
(let ((.def_389 (or b.EVENT.1__AT1 .def_388)))
(let ((.def_397 (and .def_389 .def_396)))
(let ((.def_416 (and .def_397 .def_415)))
(let ((.def_306 (= b.time__AT1 b.time__AT2)))
(let ((.def_320 (and .def_306 .def_319)))
(let ((.def_323 (and .def_320 .def_322)))
(let ((.def_326 (and .def_323 .def_325)))
(let ((.def_334 (and .def_326 .def_333)))
(let ((.def_337 (and .def_334 .def_336)))
(let ((.def_338 (or .def_251 .def_337)))
(let ((.def_309 (* (- 1.0) b.time__AT2)))
(let ((.def_312 (+ b.delta__AT1 .def_309)))
(let ((.def_313 (+ b.time__AT1 .def_312)))
(let ((.def_314 (= .def_313 0.0 )))
(let ((.def_315 (or .def_301 .def_314)))
(let ((.def_316 (or b.EVENT.1__AT1 .def_315)))
(let ((.def_307 (or .def_299 .def_306)))
(let ((.def_308 (or b.EVENT.1__AT1 .def_307)))
(let ((.def_317 (and .def_308 .def_316)))
(let ((.def_339 (and .def_317 .def_338)))
(let ((.def_303 (= .def_301 b.event_is_timed__AT2)))
(let ((.def_300 (= b.event_is_timed__AT1 .def_299)))
(let ((.def_304 (and .def_300 .def_303)))
(let ((.def_340 (and .def_304 .def_339)))
(let ((.def_417 (and .def_340 .def_416)))
(let ((.def_421 (and .def_417 .def_420)))
(let ((.def_425 (and .def_421 .def_424)))
(let ((.def_426 (and .def_251 .def_425)))
(let ((.def_445 (and .def_426 .def_444)))
(let ((.def_457 (and .def_445 .def_456)))
(let ((.def_292 (* .def_98 b.delta__AT1)))
(let ((.def_293 (<= b.speed_y__AT1 .def_292)))
(let ((.def_291 (<= b.speed_y__AT1 0.0 )))
(let ((.def_294 (and .def_291 .def_293)))
(let ((.def_287 (* .def_92 b.delta__AT1)))
(let ((.def_288 (+ b.speed_y__AT1 .def_287)))
(let ((.def_289 (<= 0.0 .def_288)))
(let ((.def_290 (and .def_286 .def_289)))
(let ((.def_295 (or .def_290 .def_294)))
(let ((.def_278 (+ .def_276 .def_277)))
(let ((.def_279 (* (- 1.0) .def_257)))
(let ((.def_282 (+ .def_279 .def_278)))
(let ((.def_283 (+ b.y__AT1 .def_282)))
(let ((.def_284 (<= 0.0 .def_283)))
(let ((.def_258 (<= .def_257 b.y__AT1)))
(let ((.def_285 (and .def_258 .def_284)))
(let ((.def_296 (and .def_285 .def_295)))
(let ((.def_297 (and .def_69 .def_296)))
(let ((.def_38 (not b.counter.0__AT0)))
(let ((.def_267 (or b.counter.1__AT0 .def_38)))
(let ((.def_268 (or b.counter.2__AT0 .def_267)))
(let ((.def_41 (not b.counter.2__AT0)))
(let ((.def_36 (not b.counter.1__AT0)))
(let ((.def_39 (and .def_36 .def_38)))
(let ((.def_266 (or .def_39 .def_41)))
(let ((.def_269 (and .def_266 .def_268)))
(let ((.def_270 (or b.counter.3__AT0 .def_269)))
(let ((.def_263 (or .def_39 b.counter.2__AT0)))
(let ((.def_262 (or .def_36 .def_41)))
(let ((.def_264 (and .def_262 .def_263)))
(let ((.def_44 (not b.counter.3__AT0)))
(let ((.def_265 (or .def_44 .def_264)))
(let ((.def_271 (and .def_265 .def_270)))
(let ((.def_259 (and .def_69 .def_258)))
(let ((.def_254 (or .def_251 .def_253)))
(let ((.def_244 (or .def_164 .def_174)))
(let ((.def_248 (or b.counter.3__AT1 .def_244)))
(let ((.def_245 (or b.counter.2__AT1 .def_244)))
(let ((.def_243 (or .def_169 .def_174)))
(let ((.def_246 (and .def_243 .def_245)))
(let ((.def_247 (or .def_183 .def_246)))
(let ((.def_249 (and .def_247 .def_248)))
(let ((.def_255 (and .def_249 .def_254)))
(let ((.def_260 (and .def_255 .def_259)))
(let ((.def_238 (<= 0.0 b.delta__AT0)))
(let ((.def_57 (not b.EVENT.0__AT0)))
(let ((.def_55 (not b.EVENT.1__AT0)))
(let ((.def_106 (and .def_55 .def_57)))
(let ((.def_108 (not .def_106)))
(let ((.def_239 (or .def_108 .def_238)))
(let ((.def_240 (or b.EVENT.1__AT0 .def_239)))
(let ((.def_148 (= b.bool_atom__AT0 b.bool_atom__AT1)))
(let ((.def_143 (= b.counter.0__AT0 b.counter.0__AT1)))
(let ((.def_140 (= b.counter.1__AT0 b.counter.1__AT1)))
(let ((.def_137 (= b.counter.2__AT0 b.counter.2__AT1)))
(let ((.def_135 (= b.counter.3__AT0 b.counter.3__AT1)))
(let ((.def_138 (and .def_135 .def_137)))
(let ((.def_141 (and .def_138 .def_140)))
(let ((.def_144 (and .def_141 .def_143)))
(let ((.def_234 (and .def_144 .def_148)))
(let ((.def_235 (or .def_108 .def_234)))
(let ((.def_236 (or b.EVENT.1__AT0 .def_235)))
(let ((.def_223 (* b.delta__AT0 .def_76)))
(let ((.def_224 (* (- 1.0) b.speed_y__AT1)))
(let ((.def_227 (+ .def_224 .def_223)))
(let ((.def_228 (+ b.speed_y__AT0 .def_227)))
(let ((.def_229 (= .def_228 0.0 )))
(let ((.def_215 (* (- 1.0) b.y__AT1)))
(let ((.def_82 (* b.delta__AT0 b.speed_y__AT0)))
(let ((.def_218 (+ .def_82 .def_215)))
(let ((.def_75 (* b.delta__AT0 b.delta__AT0)))
(let ((.def_80 (* .def_75 .def_79)))
(let ((.def_219 (+ .def_80 .def_218)))
(let ((.def_220 (+ b.y__AT0 .def_219)))
(let ((.def_221 (= .def_220 0.0 )))
(let ((.def_126 (= b.x__AT0 b.x__AT1)))
(let ((.def_222 (and .def_126 .def_221)))
(let ((.def_230 (and .def_222 .def_229)))
(let ((.def_231 (or .def_108 .def_230)))
(let ((.def_129 (= b.y__AT0 b.y__AT1)))
(let ((.def_210 (and .def_126 .def_129)))
(let ((.def_132 (= b.speed_y__AT0 b.speed_y__AT1)))
(let ((.def_211 (and .def_132 .def_210)))
(let ((.def_207 (= b.delta__AT0 0.0 )))
(let ((.def_208 (and .def_106 .def_207)))
(let ((.def_209 (not .def_208)))
(let ((.def_212 (or .def_209 .def_211)))
(let ((.def_213 (or b.EVENT.1__AT0 .def_212)))
(let ((.def_200 (and .def_132 .def_144)))
(let ((.def_201 (or b.bool_atom__AT0 .def_200)))
(let ((.def_175 (or b.counter.0__AT0 .def_174)))
(let ((.def_173 (or .def_38 b.counter.0__AT1)))
(let ((.def_176 (and .def_173 .def_175)))
(let ((.def_177 (and .def_164 .def_176)))
(let ((.def_178 (or b.counter.1__AT0 .def_177)))
(let ((.def_172 (or .def_36 b.counter.1__AT1)))
(let ((.def_179 (and .def_172 .def_178)))
(let ((.def_191 (and .def_169 .def_179)))
(let ((.def_192 (or b.counter.2__AT0 .def_191)))
(let ((.def_186 (and .def_38 .def_164)))
(let ((.def_187 (or b.counter.1__AT0 .def_186)))
(let ((.def_188 (and .def_172 .def_187)))
(let ((.def_189 (and b.counter.2__AT1 .def_188)))
(let ((.def_190 (or .def_41 .def_189)))
(let ((.def_193 (and .def_190 .def_192)))
(let ((.def_194 (and b.counter.3__AT1 .def_193)))
(let ((.def_195 (or b.counter.3__AT0 .def_194)))
(let ((.def_180 (and b.counter.2__AT1 .def_179)))
(let ((.def_181 (or b.counter.2__AT0 .def_180)))
(let ((.def_167 (or b.counter.1__AT0 b.counter.1__AT1)))
(let ((.def_165 (and b.counter.0__AT1 .def_164)))
(let ((.def_166 (or .def_36 .def_165)))
(let ((.def_168 (and .def_166 .def_167)))
(let ((.def_170 (and .def_168 .def_169)))
(let ((.def_171 (or .def_41 .def_170)))
(let ((.def_182 (and .def_171 .def_181)))
(let ((.def_184 (and .def_182 .def_183)))
(let ((.def_185 (or .def_44 .def_184)))
(let ((.def_196 (and .def_185 .def_195)))
(let ((.def_161 (* b.speed_y__AT0 b.speed_y__AT0)))
(let ((.def_162 (= .def_160 .def_161)))
(let ((.def_158 (+ b.speed_y__AT0 b.speed_y__AT1)))
(let ((.def_159 (= .def_158 0.0 )))
(let ((.def_163 (and .def_159 .def_162)))
(let ((.def_197 (and .def_163 .def_196)))
(let ((.def_157 (not b.bool_atom__AT0)))
(let ((.def_198 (or .def_157 .def_197)))
(let ((.def_91 (<= 0.0 b.speed_y__AT0)))
(let ((.def_154 (not .def_91)))
(let ((.def_62 (* (- 1.0) b.x__AT0)))
(let ((.def_63 (* b.x__AT0 .def_62)))
(let ((.def_153 (= b.y__AT0 .def_63)))
(let ((.def_155 (and .def_153 .def_154)))
(let ((.def_156 (= b.bool_atom__AT0 .def_155)))
(let ((.def_199 (and .def_156 .def_198)))
(let ((.def_202 (and .def_199 .def_201)))
(let ((.def_203 (and .def_126 .def_202)))
(let ((.def_204 (and .def_129 .def_203)))
(let ((.def_205 (or .def_106 .def_204)))
(let ((.def_206 (or b.EVENT.1__AT0 .def_205)))
(let ((.def_214 (and .def_206 .def_213)))
(let ((.def_232 (and .def_214 .def_231)))
(let ((.def_113 (= b.time__AT0 b.time__AT1)))
(let ((.def_127 (and .def_113 .def_126)))
(let ((.def_130 (and .def_127 .def_129)))
(let ((.def_133 (and .def_130 .def_132)))
(let ((.def_145 (and .def_133 .def_144)))
(let ((.def_149 (and .def_145 .def_148)))
(let ((.def_150 (or .def_55 .def_149)))
(let ((.def_116 (* (- 1.0) b.time__AT1)))
(let ((.def_119 (+ b.delta__AT0 .def_116)))
(let ((.def_120 (+ b.time__AT0 .def_119)))
(let ((.def_121 (= .def_120 0.0 )))
(let ((.def_122 (or .def_108 .def_121)))
(let ((.def_123 (or b.EVENT.1__AT0 .def_122)))
(let ((.def_114 (or .def_106 .def_113)))
(let ((.def_115 (or b.EVENT.1__AT0 .def_114)))
(let ((.def_124 (and .def_115 .def_123)))
(let ((.def_151 (and .def_124 .def_150)))
(let ((.def_110 (= .def_108 b.event_is_timed__AT1)))
(let ((.def_107 (= b.event_is_timed__AT0 .def_106)))
(let ((.def_111 (and .def_107 .def_110)))
(let ((.def_152 (and .def_111 .def_151)))
(let ((.def_233 (and .def_152 .def_232)))
(let ((.def_237 (and .def_233 .def_236)))
(let ((.def_241 (and .def_237 .def_240)))
(let ((.def_242 (and .def_55 .def_241)))
(let ((.def_261 (and .def_242 .def_260)))
(let ((.def_272 (and .def_261 .def_271)))
(let ((.def_99 (* b.delta__AT0 .def_98)))
(let ((.def_100 (<= b.speed_y__AT0 .def_99)))
(let ((.def_97 (<= b.speed_y__AT0 0.0 )))
(let ((.def_101 (and .def_97 .def_100)))
(let ((.def_93 (* b.delta__AT0 .def_92)))
(let ((.def_94 (+ b.speed_y__AT0 .def_93)))
(let ((.def_95 (<= 0.0 .def_94)))
(let ((.def_96 (and .def_91 .def_95)))
(let ((.def_102 (or .def_96 .def_101)))
(let ((.def_83 (+ .def_80 .def_82)))
(let ((.def_84 (* (- 1.0) .def_63)))
(let ((.def_87 (+ .def_84 .def_83)))
(let ((.def_88 (+ b.y__AT0 .def_87)))
(let ((.def_89 (<= 0.0 .def_88)))
(let ((.def_64 (<= .def_63 b.y__AT0)))
(let ((.def_90 (and .def_64 .def_89)))
(let ((.def_103 (and .def_90 .def_102)))
(let ((.def_104 (and .def_69 .def_103)))
(let ((.def_70 (and .def_64 .def_69)))
(let ((.def_58 (or .def_55 .def_57)))
(let ((.def_48 (or .def_36 .def_38)))
(let ((.def_52 (or b.counter.3__AT0 .def_48)))
(let ((.def_49 (or b.counter.2__AT0 .def_48)))
(let ((.def_47 (or .def_38 .def_41)))
(let ((.def_50 (and .def_47 .def_49)))
(let ((.def_51 (or .def_44 .def_50)))
(let ((.def_53 (and .def_51 .def_52)))
(let ((.def_59 (and .def_53 .def_58)))
(let ((.def_71 (and .def_59 .def_70)))
(let ((.def_42 (and .def_39 .def_41)))
(let ((.def_45 (and .def_42 .def_44)))
(let ((.def_33 (= b.y__AT0 10.0 )))
(let ((.def_29 (= b.x__AT0 0.0 )))
(let ((.def_25 (= b.time__AT0 0.0 )))
(let ((.def_27 (and .def_25 b.event_is_timed__AT0)))
(let ((.def_30 (and .def_27 .def_29)))
(let ((.def_34 (and .def_30 .def_33)))
(let ((.def_46 (and .def_34 .def_45)))
(let ((.def_72 (and .def_46 .def_71)))
(let ((.def_17 (or b.counter.1__AT2 .def_9)))
(let ((.def_18 (or b.counter.2__AT2 .def_17)))
(let ((.def_10 (and .def_6 .def_9)))
(let ((.def_16 (or .def_4 .def_10)))
(let ((.def_19 (and .def_16 .def_18)))
(let ((.def_20 (or b.counter.3__AT2 .def_19)))
(let ((.def_11 (or b.counter.2__AT2 .def_10)))
(let ((.def_7 (or .def_4 .def_6)))
(let ((.def_12 (and .def_7 .def_11)))
(let ((.def_15 (or .def_12 .def_14)))
(let ((.def_21 (and .def_15 .def_20)))
(let ((.def_22 (not .def_21)))
(let ((.def_73 (and .def_22 .def_72)))
(let ((.def_105 (and .def_73 .def_104)))
(let ((.def_273 (and .def_105 .def_272)))
(let ((.def_298 (and .def_273 .def_297)))
(let ((.def_458 (and .def_298 .def_457)))
(let ((.def_483 (and .def_458 .def_482)))
.def_483))))))))))))))))))))))))))))))))))))))))))))))))))))))))))))))))))))))))))))))))))))))))))))))))))))))))))))))))))))))))))))))))))))))))))))))))))))))))))))))))))))))))))))))))))))))))))))))))))))))))))))))))))))))))))))))))))))))))))))))))))))))))))))))))))))))))))))))))))))))))))))))))))))))))))))))))))))))))))))))))))))))))))))))))))))))))))))))))))))))))))))))))))))))))))))))))))))))))))))))))))))))))))))))))
(check-sat)
(exit)
